certificates/rado_a11_c68_N24.cnf
c Rad2 upper bound instance: x1 + 11*x2 - x3 = 68, interval [1,24]
p cnf 24 104
1 7 10 0
-1 -7 -10 0
1 8 21 0
-1 -8 -21 0
2 7 11 0
-2 -7 -11 0
2 8 22 0
-2 -8 -22 0
1 3 6 0
-1 -3 -6 0
3 7 12 0
-3 -7 -12 0
3 8 23 0
-3 -8 -23 0
2 4 6 0
-2 -4 -6 0
4 7 13 0
-4 -7 -13 0
4 8 24 0
-4 -8 -24 0
3 5 6 0
-3 -5 -6 0
5 7 14 0
-5 -7 -14 0
4 6 0
-4 -6 0
6 7 15 0
-6 -7 -15 0
5 6 7 0
-5 -6 -7 0
7 16 0
-7 -16 0
6 8 0
-6 -8 0
7 8 17 0
-7 -8 -17 0
6 7 9 0
-6 -7 -9 0
7 9 18 0
-7 -9 -18 0
6 8 10 0
-6 -8 -10 0
7 10 19 0
-7 -10 -19 0
6 9 11 0
-6 -9 -11 0
7 11 20 0
-7 -11 -20 0
6 10 12 0
-6 -10 -12 0
7 12 21 0
-7 -12 -21 0
6 11 13 0
-6 -11 -13 0
7 13 22 0
-7 -13 -22 0
1 5 14 0
-1 -5 -14 0
6 12 14 0
-6 -12 -14 0
7 14 23 0
-7 -14 -23 0
2 5 15 0
-2 -5 -15 0
6 13 15 0
-6 -13 -15 0
7 15 24 0
-7 -15 -24 0
3 5 16 0
-3 -5 -16 0
6 14 16 0
-6 -14 -16 0
4 5 17 0
-4 -5 -17 0
6 15 17 0
-6 -15 -17 0
5 18 0
-5 -18 0
6 16 18 0
-6 -16 -18 0
5 6 19 0
-5 -6 -19 0
6 17 19 0
-6 -17 -19 0
5 7 20 0
-5 -7 -20 0
6 18 20 0
-6 -18 -20 0
5 8 21 0
-5 -8 -21 0
6 19 21 0
-6 -19 -21 0
5 9 22 0
-5 -9 -22 0
6 20 22 0
-6 -20 -22 0
5 10 23 0
-5 -10 -23 0
6 21 23 0
-6 -21 -23 0
5 11 24 0
-5 -11 -24 0
6 22 24 0
-6 -22 -24 0
