certificates/rado_a11_c68_N24.drat
6 -24 0
-23 -6 0
-24 0
8 0
-6 0
4 0
22 0
-2 0
23 0
-3 0
1 0
5 0
-21 0
-14 0
-17 0
-18 0
-9 0
-10 0
19 0
16 0
12 0
15 0
20 0
7 0
11 0
0
